; DUP2 DUP4 ADD SWAP1 POP => POP DUP1 DUP3 ADD
(set-option :produce-proofs true)
; 
(set-info :status unknown)
(declare-fun storage_t ((_ BitVec 256) (_ BitVec 256) (_ BitVec 256) Int (_ BitVec 256)) (_ BitVec 256))
(declare-fun storage_s ((_ BitVec 256) (_ BitVec 256) (_ BitVec 256) Int (_ BitVec 256)) (_ BitVec 256))
(declare-fun exc_halt_t (Int) Bool)
(declare-fun exc_halt_s (Int) Bool)
(declare-fun stack_t ((_ BitVec 256) (_ BitVec 256) (_ BitVec 256) Int (_ BitVec 6)) (_ BitVec 256))
(declare-fun stack_s ((_ BitVec 256) (_ BitVec 256) (_ BitVec 256) Int (_ BitVec 6)) (_ BitVec 256))
(declare-fun sc_t (Int) (_ BitVec 6))
(declare-fun sc_s (Int) (_ BitVec 6))
(declare-fun used_gas_t ((_ BitVec 256) (_ BitVec 256) (_ BitVec 256) Int) Int)
(declare-fun used_gas_s ((_ BitVec 256) (_ BitVec 256) (_ BitVec 256) Int) Int)
(assert
 (exists ((x_0 (_ BitVec 256)) (x_1 (_ BitVec 256)) (x_2 (_ BitVec 256)) )(let (($x3091 (forall ((w (_ BitVec 256)) )(let ((?x9587 (storage_t x_0 x_1 x_2 4 w)))
 (let ((?x1130 (storage_s x_0 x_1 x_2 5 w)))
 (= ?x1130 ?x9587))))
 ))
 (let (($x3723 (exc_halt_t 4)))
 (let (($x11317 (exc_halt_s 5)))
 (let (($x4974 (= $x11317 $x3723)))
 (let (($x9374 (forall ((n (_ BitVec 6)) )(let ((?x8334 (stack_t x_0 x_1 x_2 4 n)))
 (let ((?x4887 (stack_s x_0 x_1 x_2 5 n)))
 (let (($x11189 (= ?x4887 ?x8334)))
 (let ((?x1098 (sc_t 4)))
 (let (($x10045 (bvsle ?x1098 n)))
 (or $x10045 $x11189)))))))
 ))
 (let ((?x1098 (sc_t 4)))
 (let ((?x4319 (sc_s 5)))
 (let (($x4380 (= ?x4319 ?x1098)))
 (let ((?x10202 (used_gas_t x_0 x_1 x_2 0)))
 (let ((?x11605 (used_gas_s x_0 x_1 x_2 0)))
 (let (($x1096 (= ?x11605 ?x10202)))
 (let (($x8636 (forall ((w (_ BitVec 256)) )(let ((?x3765 (storage_t x_0 x_1 x_2 0 w)))
 (let ((?x8835 (storage_s x_0 x_1 x_2 0 w)))
 (= ?x8835 ?x3765))))
 ))
 (let (($x56 (exc_halt_t 0)))
 (let (($x57 (exc_halt_s 0)))
 (let (($x58 (= $x57 $x56)))
 (let (($x7360 (forall ((n (_ BitVec 6)) )(let ((?x63 (sc_t 0)))
 (let (($x11783 (bvsle ?x63 n)))
 (let ((?x546 (stack_t x_0 x_1 x_2 0 n)))
 (let ((?x1169 (stack_s x_0 x_1 x_2 0 n)))
 (let (($x3581 (= ?x1169 ?x546)))
 (or $x3581 $x11783)))))))
 ))
 (let ((?x63 (sc_t 0)))
 (let ((?x72 (sc_s 0)))
 (let (($x73 (= ?x72 ?x63)))
 (let (($x11684 (= $x3723 (or (exc_halt_t 3) (not (bvsle (_ bv0 6) (bvadd (_ bv62 6) (sc_t 3))))))))
 (let (($x4043 (forall ((w (_ BitVec 256)) )(let ((?x1394 (storage_t x_0 x_1 x_2 3 w)))
 (let ((?x9587 (storage_t x_0 x_1 x_2 4 w)))
 (= ?x9587 ?x1394))))
 ))
 (let (($x9107 (forall ((n (_ BitVec 6)) )(let ((?x9522 (stack_t x_0 x_1 x_2 3 n)))
 (let ((?x8334 (stack_t x_0 x_1 x_2 4 n)))
 (or (bvsle (bvadd (_ bv62 6) (sc_t 3)) n) (= ?x8334 ?x9522)))))
 ))
 (let (($x6827 (= (used_gas_t x_0 x_1 x_2 4) (+ 3 (used_gas_t x_0 x_1 x_2 3)))))
 (let ((?x6438 (sc_t 3)))
 (let ((?x7459 (bvadd (_ bv63 6) ?x6438)))
 (let ((?x10830 (stack_t x_0 x_1 x_2 3 ?x7459)))
 (let (($x1521 (= (stack_t x_0 x_1 x_2 4 (bvadd (_ bv63 6) ?x1098)) (bvadd ?x10830 (stack_t x_0 x_1 x_2 3 (bvadd (_ bv62 6) ?x6438))))))
 (let (($x7871 (not (= ((_ extract 6 6) (bvadd (_ bv1 7) (concat (_ bv0 1) (sc_t 2)))) (_ bv0 1)))))
 (let (($x5252 (exc_halt_t 2)))
 (let (($x6783 (exc_halt_t 3)))
 (let (($x10665 (= $x6783 (or (not (bvsle (_ bv0 6) (bvadd (_ bv61 6) (sc_t 2)))) $x5252 $x7871))))
 (let (($x3597 (forall ((w (_ BitVec 256)) )(let ((?x6924 (storage_t x_0 x_1 x_2 2 w)))
 (let ((?x1394 (storage_t x_0 x_1 x_2 3 w)))
 (= ?x1394 ?x6924))))
 ))
 (let (($x8478 (forall ((n (_ BitVec 6)) )(let ((?x2714 (sc_t 2)))
 (let ((?x4798 (bvadd (_ bv61 6) ?x2714)))
 (let (($x9923 (bvsle ?x4798 n)))
 (let ((?x6751 (stack_t x_0 x_1 x_2 2 n)))
 (let ((?x9522 (stack_t x_0 x_1 x_2 3 n)))
 (let (($x6384 (= ?x9522 ?x6751)))
 (or $x6384 $x9923))))))))
 ))
 (let (($x708 (= ?x6438 (bvadd (_ bv1 6) (sc_t 2)))))
 (let ((?x8913 (used_gas_t x_0 x_1 x_2 3)))
 (let ((?x2714 (sc_t 2)))
 (let ((?x3328 (bvadd (_ bv63 6) ?x2714)))
 (let ((?x2172 (stack_t x_0 x_1 x_2 2 ?x3328)))
 (let (($x7737 (= (stack_t x_0 x_1 x_2 3 (bvadd (_ bv62 6) ?x2714)) (stack_t x_0 x_1 x_2 2 (bvadd (_ bv62 6) ?x2714)))))
 (let ((?x4798 (bvadd (_ bv61 6) ?x2714)))
 (let ((?x11416 (stack_t x_0 x_1 x_2 2 ?x4798)))
 (let (($x10036 (not (bvsle (_ bv0 6) (bvadd (_ bv63 6) (sc_t 1))))))
 (let (($x6748 (not (= ((_ extract 6 6) (bvadd (_ bv1 7) (concat (_ bv0 1) (sc_t 1)))) (_ bv0 1)))))
 (let (($x3508 (exc_halt_t 1)))
 (let (($x9711 (= $x5252 (or $x3508 $x6748 $x10036))))
 (let (($x954 (forall ((w (_ BitVec 256)) )(let ((?x4008 (storage_t x_0 x_1 x_2 1 w)))
 (let ((?x6924 (storage_t x_0 x_1 x_2 2 w)))
 (= ?x6924 ?x4008))))
 ))
 (let (($x525 (forall ((n (_ BitVec 6)) )(let ((?x5735 (stack_t x_0 x_1 x_2 1 n)))
 (let ((?x6751 (stack_t x_0 x_1 x_2 2 n)))
 (let (($x2926 (= ?x6751 ?x5735)))
 (let ((?x8347 (sc_t 1)))
 (let ((?x9704 (bvadd (_ bv63 6) ?x8347)))
 (let (($x645 (bvsle ?x9704 n)))
 (or $x645 $x2926))))))))
 ))
 (let (($x995 (= ?x2714 (bvadd (_ bv1 6) (sc_t 1)))))
 (let ((?x2685 (used_gas_t x_0 x_1 x_2 2)))
 (let (($x3983 (= ?x2685 (+ 3 (used_gas_t x_0 x_1 x_2 1)))))
 (let ((?x8347 (sc_t 1)))
 (let ((?x9704 (bvadd (_ bv63 6) ?x8347)))
 (let ((?x6991 (stack_t x_0 x_1 x_2 1 ?x9704)))
 (let (($x8834 (forall ((w (_ BitVec 256)) )(let ((?x3765 (storage_t x_0 x_1 x_2 0 w)))
 (let ((?x4008 (storage_t x_0 x_1 x_2 1 w)))
 (= ?x4008 ?x3765))))
 ))
 (let (($x10565 (forall ((n (_ BitVec 6)) )(let ((?x546 (stack_t x_0 x_1 x_2 0 n)))
 (let ((?x5735 (stack_t x_0 x_1 x_2 1 n)))
 (let (($x11586 (= ?x5735 ?x546)))
 (let ((?x63 (sc_t 0)))
 (let ((?x1928 (bvadd (_ bv63 6) ?x63)))
 (let (($x3282 (bvsle ?x1928 n)))
 (or $x3282 $x11586))))))))
 ))
 (let ((?x1928 (bvadd (_ bv63 6) ?x63)))
 (let (($x9260 (= ?x8347 ?x1928)))
 (let (($x1632 (= $x11317 (or (exc_halt_s 4) (not (bvsle (_ bv0 6) (bvadd (_ bv63 6) (sc_s 4))))))))
 (let (($x5467 (forall ((w (_ BitVec 256)) )(let ((?x3894 (storage_s x_0 x_1 x_2 4 w)))
 (let ((?x1130 (storage_s x_0 x_1 x_2 5 w)))
 (= ?x1130 ?x3894))))
 ))
 (let (($x7003 (forall ((n (_ BitVec 6)) )(let ((?x2490 (stack_s x_0 x_1 x_2 4 n)))
 (let ((?x4887 (stack_s x_0 x_1 x_2 5 n)))
 (let ((?x4305 (sc_s 4)))
 (let ((?x8501 (bvadd (_ bv63 6) ?x4305)))
 (let (($x8809 (bvsle ?x8501 n)))
 (or $x8809 (= ?x4887 ?x2490))))))))
 ))
 (let ((?x4305 (sc_s 4)))
 (let ((?x8501 (bvadd (_ bv63 6) ?x4305)))
 (let (($x9540 (= ?x4319 ?x8501)))
 (let (($x3901 (= (used_gas_s x_0 x_1 x_2 5) (+ 2 (used_gas_s x_0 x_1 x_2 4)))))
 (let (($x7172 (exc_halt_s 4)))
 (let (($x11446 (= $x7172 (or (exc_halt_s 3) (not (bvsle (_ bv0 6) (bvadd (_ bv62 6) (sc_s 3))))))))
 (let (($x9564 (forall ((w (_ BitVec 256)) )(let ((?x3441 (storage_s x_0 x_1 x_2 3 w)))
 (let ((?x3894 (storage_s x_0 x_1 x_2 4 w)))
 (= ?x3894 ?x3441))))
 ))
 (let (($x11347 (forall ((n (_ BitVec 6)) )(let ((?x5248 (stack_s x_0 x_1 x_2 3 n)))
 (let ((?x2490 (stack_s x_0 x_1 x_2 4 n)))
 (let (($x6726 (= ?x2490 ?x5248)))
 (let ((?x275 (sc_s 3)))
 (let ((?x6164 (bvadd (_ bv62 6) ?x275)))
 (let (($x2616 (bvsle ?x6164 n)))
 (or $x2616 $x6726))))))))
 ))
 (let ((?x275 (sc_s 3)))
 (let (($x8046 (= ?x4305 ?x275)))
 (let ((?x269 (used_gas_s x_0 x_1 x_2 4)))
 (let ((?x3294 (bvadd (_ bv63 6) ?x275)))
 (let ((?x8734 (stack_s x_0 x_1 x_2 3 ?x3294)))
 (let (($x3719 (= (stack_s x_0 x_1 x_2 4 ?x8501) (stack_s x_0 x_1 x_2 3 (bvadd (_ bv62 6) ?x275)))))
 (let (($x292 (exc_halt_s 3)))
 (let (($x3345 (= $x292 (or (exc_halt_s 2) (not (bvsle (_ bv0 6) (bvadd (_ bv62 6) (sc_s 2))))))))
 (let (($x6426 (forall ((w (_ BitVec 256)) )(let ((?x9850 (storage_s x_0 x_1 x_2 2 w)))
 (let ((?x3441 (storage_s x_0 x_1 x_2 3 w)))
 (= ?x3441 ?x9850))))
 ))
 (let (($x7225 (forall ((n (_ BitVec 6)) )(let ((?x218 (sc_s 2)))
 (let ((?x798 (bvadd (_ bv62 6) ?x218)))
 (let (($x4109 (bvsle ?x798 n)))
 (let ((?x11172 (stack_s x_0 x_1 x_2 2 n)))
 (let ((?x5248 (stack_s x_0 x_1 x_2 3 n)))
 (let (($x883 (= ?x5248 ?x11172)))
 (or $x883 $x4109))))))))
 ))
 (let ((?x218 (sc_s 2)))
 (let ((?x8348 (bvadd (_ bv63 6) ?x218)))
 (let (($x9977 (= ?x275 ?x8348)))
 (let ((?x3542 (used_gas_s x_0 x_1 x_2 3)))
 (let ((?x8089 (stack_s x_0 x_1 x_2 2 ?x8348)))
 (let (($x7976 (= ?x8734 (bvadd ?x8089 (stack_s x_0 x_1 x_2 2 (bvadd (_ bv62 6) ?x218))))))
 (let (($x8177 (not (= ((_ extract 6 6) (bvadd (_ bv1 7) (concat (_ bv0 1) (sc_s 1)))) (_ bv0 1)))))
 (let (($x189 (exc_halt_s 1)))
 (let (($x247 (exc_halt_s 2)))
 (let (($x4527 (forall ((w (_ BitVec 256)) )(let ((?x1125 (storage_s x_0 x_1 x_2 1 w)))
 (let ((?x9850 (storage_s x_0 x_1 x_2 2 w)))
 (= ?x9850 ?x1125))))
 ))
 (let (($x3272 (forall ((n (_ BitVec 6)) )(let ((?x5738 (stack_s x_0 x_1 x_2 1 n)))
 (let ((?x11172 (stack_s x_0 x_1 x_2 2 n)))
 (let (($x10269 (= ?x11172 ?x5738)))
 (or (bvsle (bvadd (_ bv60 6) (sc_s 1)) n) $x10269)))))
 ))
 (let (($x9548 (= ?x218 (bvadd (_ bv1 6) (sc_s 1)))))
 (let ((?x2400 (used_gas_s x_0 x_1 x_2 2)))
 (let ((?x154 (sc_s 1)))
 (let ((?x11262 (bvadd (_ bv63 6) ?x154)))
 (let ((?x9993 (stack_s x_0 x_1 x_2 1 ?x11262)))
 (let ((?x3844 (bvadd (_ bv62 6) ?x154)))
 (let ((?x6332 (stack_s x_0 x_1 x_2 1 ?x3844)))
 (let (($x5476 (= (stack_s x_0 x_1 x_2 2 (bvadd (_ bv61 6) ?x154)) (stack_s x_0 x_1 x_2 1 (bvadd (_ bv61 6) ?x154)))))
 (let ((?x3618 (bvadd (_ bv60 6) ?x154)))
 (let ((?x11565 (stack_s x_0 x_1 x_2 1 ?x3618)))
 (let (($x10446 (not (= ((_ extract 6 6) (bvadd (_ bv1 7) (concat (_ bv0 1) ?x72))) (_ bv0 1)))))
 (let (($x7096 (not (bvsle (_ bv0 6) (bvadd (_ bv62 6) ?x72)))))
 (let (($x9292 (= $x189 (or $x57 $x7096 $x10446))))
 (let (($x6570 (forall ((w (_ BitVec 256)) )(let ((?x8835 (storage_s x_0 x_1 x_2 0 w)))
 (let ((?x1125 (storage_s x_0 x_1 x_2 1 w)))
 (= ?x1125 ?x8835))))
 ))
 (let (($x7755 (forall ((n (_ BitVec 6)) )(let ((?x72 (sc_s 0)))
 (let ((?x4677 (bvadd (_ bv62 6) ?x72)))
 (let (($x10507 (bvsle ?x4677 n)))
 (let ((?x1169 (stack_s x_0 x_1 x_2 0 n)))
 (let ((?x5738 (stack_s x_0 x_1 x_2 1 n)))
 (or (= ?x5738 ?x1169) $x10507)))))))
 ))
 (let (($x10536 (= ?x154 (bvadd (_ bv1 6) ?x72))))
 (let ((?x10911 (used_gas_s x_0 x_1 x_2 1)))
 (let (($x1396 (= ?x10911 (+ 3 ?x11605))))
 (let ((?x10160 (bvadd (_ bv63 6) ?x72)))
 (let ((?x2610 (stack_s x_0 x_1 x_2 0 ?x10160)))
 (let ((?x4677 (bvadd (_ bv62 6) ?x72)))
 (let ((?x6038 (stack_s x_0 x_1 x_2 0 ?x4677)))
 (let (($x11360 (= ?x9993 ?x6038)))
 (let (($x4778 (forall ((w (_ BitVec 256)) )(let ((?x8835 (storage_s x_0 x_1 x_2 0 w)))
 (= ?x8835 (_ bv0 256))))
 ))
 (let (($x3068 (= ?x11605 0)))
 (let (($x3095 (not $x57)))
 (let (($x817 (= (stack_s x_0 x_1 x_2 0 (_ bv2 6)) x_2)))
 (let (($x3228 (= (stack_s x_0 x_1 x_2 0 (_ bv1 6)) x_1)))
 (let (($x11230 (= (stack_s x_0 x_1 x_2 0 (_ bv0 6)) x_0)))
 (let (($x5315 (= ?x72 (_ bv3 6))))
 (and $x5315 $x11230 $x3228 $x817 $x3095 $x3068 $x4778 $x11360 (= (stack_s x_0 x_1 x_2 1 ?x4677) ?x6038) (= (stack_s x_0 x_1 x_2 1 ?x10160) ?x2610) $x1396 $x10536 $x7755 $x6570 $x9292 (= ?x8089 ?x11565) (= (stack_s x_0 x_1 x_2 2 ?x3618) ?x11565) $x5476 (= (stack_s x_0 x_1 x_2 2 ?x3844) ?x6332) (= (stack_s x_0 x_1 x_2 2 ?x11262) ?x9993) (= ?x2400 (+ 3 ?x10911)) $x9548 $x3272 $x4527 (= $x247 (or $x189 $x8177 (not (bvsle (_ bv0 6) ?x3618)))) $x7976 (= ?x3542 (+ 3 ?x2400)) $x9977 $x7225 $x6426 $x3345 $x3719 (= (stack_s x_0 x_1 x_2 4 (bvadd (_ bv62 6) ?x4305)) ?x8734) (= ?x269 (+ 3 ?x3542)) $x8046 $x11347 $x9564 $x11446 $x3901 $x9540 $x7003 $x5467 $x1632 (= (used_gas_t x_0 x_1 x_2 1) (+ 2 ?x10202)) $x9260 $x10565 $x8834 (= $x3508 (or $x56 (not (bvsle (_ bv0 6) ?x1928)))) (= ?x2172 ?x6991) (= (stack_t x_0 x_1 x_2 2 ?x9704) ?x6991) $x3983 $x995 $x525 $x954 $x9711 (= ?x10830 ?x11416) (= (stack_t x_0 x_1 x_2 3 ?x4798) ?x11416) $x7737 (= (stack_t x_0 x_1 x_2 3 ?x3328) ?x2172) (= ?x8913 (+ 3 ?x2685)) $x708 $x8478 $x3597 $x10665 $x1521 $x6827 (= ?x1098 ?x7459) $x9107 $x4043 $x11684 $x73 $x7360 $x58 $x8636 $x1096 (not (and $x4380 $x9374 $x4974 $x3091)))))))))))))))))))))))))))))))))))))))))))))))))))))))))))))))))))))))))))))))))))))))))))))))))))))))))))))))))))))))))))
 )
(check-sat)
(get-proof)
